projet_m2_wvcp/reduced_wvcp_dzn/GEOM50.clq.dzn
cliques=[{0,1,8,14},{0,1,8,14},{2,4,10,18,21},{2,3,18},{2,4,10,18,21},{5,7,11,20,22,23},{0,6,14,15,17},{5,7,11,20,22,23},{0,1,8,14},{6,9,17},{2,4,10,18,21},{5,7,11,20,22,23},{12,13,16,19},{13,12,16,19},{0,1,8,14},{0,1,14,15,17},{12,13,16,19},{0,1,14,15,17},{2,4,10,18,21},{4,10,18,19,21},{5,7,11,20,22,23},{2,4,10,18,21},{5,7,11,20,22,23},{5,7,11,20,23,22}];
nr_cliques=24;
