projet_m2_wvcp/reduced_wvcp_dzn/GEOM50.dzn
name="GEOM50";
nr_vertices=24;
nr_edges=59;
neighborhoods=[{1,6,8,14,15,17},{0,8,14,15,17},{3,4,10,18,21},{2,18},{2,10,18,19,21},{7,11,20,22,23},{0,9,14,15,17},{5,11,20,22,23},{0,1,14},{6,17,20},{2,4,16,18,19,21},{5,7,20,22,23},{13,16,19},{12,16,19},{0,1,6,8,15,17},{0,1,6,14,17},{10,12,13,19,21},{0,1,6,9,14,15},{2,3,4,10,19,21},{4,10,12,13,16,18,21},{5,7,9,11,22,23},{2,4,10,16,18,19},{5,7,11,20,23},{5,7,11,20,22}];
weights=[10,10,10,10,9,9,8,8,8,8,7,7,7,7,6,5,5,4,4,3,3,2,2,2];
